p cnf 1570 1959
5 16 31 33 0
5 16 31 -33 0
-31 18 32 34 0
-31 18 32 -34 0
-32 7 26 35 0
-32 7 26 -35 0
21 -12 36 38 0
21 -12 36 -38 0
-36 -2 37 39 0
-36 -2 37 -39 0
-37 19 -25 40 0
-37 19 -25 -40 0
24 -10 9 -26 0
21 -15 14 11 0
-6 5 41 43 0
-6 5 41 -43 0
-41 9 42 44 0
-41 9 42 -44 0
-42 24 -13 45 0
-42 24 -13 -45 0
8 -23 46 48 0
8 -23 46 -48 0
-46 4 47 49 0
-46 4 47 -49 0
-47 -17 6 50 0
-47 -17 6 -50 0
30 -23 51 53 0
30 -23 51 -53 0
-51 -25 52 54 0
-51 -25 52 -54 0
-52 -14 2 55 0
-52 -14 2 -55 0
1 5 -25 -20 0
13 5 56 58 0
13 5 56 -58 0
-56 18 57 59 0
-56 18 57 -59 0
-57 22 11 60 0
-57 22 11 -60 0
-26 13 61 63 0
-26 13 61 -63 0
-61 18 62 64 0
-61 18 62 -64 0
-62 11 -17 65 0
-62 11 -17 -65 0
28 3 -22 -14 0
-27 -20 66 68 0
-27 -20 66 -68 0
-66 -11 67 69 0
-66 -11 67 -69 0
-67 4 -10 70 0
-67 4 -10 -70 0
3 6 14 27 0
6 17 71 73 0
6 17 71 -73 0
-71 -22 72 74 0
-71 -22 72 -74 0
-72 -9 -1 75 0
-72 -9 -1 -75 0
25 22 76 78 0
25 22 76 -78 0
-76 -17 77 79 0
-76 -17 77 -79 0
-77 10 -29 80 0
-77 10 -29 -80 0
-1 -26 81 83 0
-1 -26 81 -83 0
-81 -25 82 84 0
-81 -25 82 -84 0
-82 -27 -20 85 0
-82 -27 -20 -85 0
-14 -7 9 15 0
-6 -21 86 88 0
-6 -21 86 -88 0
-86 -2 87 89 0
-86 -2 87 -89 0
-87 -26 7 90 0
-87 -26 7 -90 0
-17 -5 91 93 0
-17 -5 91 -93 0
-91 7 92 94 0
-91 7 92 -94 0
-92 -13 -11 95 0
-92 -13 -11 -95 0
-9 -4 96 98 0
-9 -4 96 -98 0
-96 -2 97 99 0
-96 -2 97 -99 0
-97 13 -12 100 0
-97 13 -12 -100 0
-10 -12 101 103 0
-10 -12 101 -103 0
-101 30 102 104 0
-101 30 102 -104 0
-102 8 -2 105 0
-102 8 -2 -105 0
-18 19 106 108 0
-18 19 106 -108 0
-106 20 107 109 0
-106 20 107 -109 0
-107 -14 -9 110 0
-107 -14 -9 -110 0
11 28 111 113 0
11 28 111 -113 0
-111 14 112 114 0
-111 14 112 -114 0
-112 20 7 115 0
-112 20 7 -115 0
-18 30 116 118 0
-18 30 116 -118 0
-116 4 117 119 0
-116 4 117 -119 0
-117 2 -14 120 0
-117 2 -14 -120 0
-21 27 121 123 0
-21 27 121 -123 0
-121 13 122 124 0
-121 13 122 -124 0
-122 17 29 125 0
-122 17 29 -125 0
10 22 126 128 0
10 22 126 -128 0
-126 -26 127 129 0
-126 -26 127 -129 0
-127 -4 23 130 0
-127 -4 23 -130 0
-13 -21 131 133 0
-13 -21 131 -133 0
-131 26 132 134 0
-131 26 132 -134 0
-132 5 10 135 0
-132 5 10 -135 0
2 -16 -10 14 0
2 14 136 138 0
2 14 136 -138 0
-136 -9 137 139 0
-136 -9 137 -139 0
-137 30 16 140 0
-137 30 16 -140 0
-4 27 141 143 0
-4 27 141 -143 0
-141 -17 142 144 0
-141 -17 142 -144 0
-142 -23 13 145 0
-142 -23 13 -145 0
30 17 146 148 0
30 17 146 -148 0
-146 -26 147 149 0
-146 -26 147 -149 0
-147 -6 -20 150 0
-147 -6 -20 -150 0
25 21 151 153 0
25 21 151 -153 0
-151 -16 152 154 0
-151 -16 152 -154 0
-152 22 -13 155 0
-152 22 -13 -155 0
29 25 156 158 0
29 25 156 -158 0
-156 -12 157 159 0
-156 -12 157 -159 0
-157 -16 -30 160 0
-157 -16 -30 -160 0
-7 -25 161 163 0
-7 -25 161 -163 0
-161 -17 162 164 0
-161 -17 162 -164 0
-162 3 14 165 0
-162 3 14 -165 0
-25 -4 166 168 0
-25 -4 166 -168 0
-166 2 167 169 0
-166 2 167 -169 0
-167 -14 -16 170 0
-167 -14 -16 -170 0
20 4 14 171 0
20 4 14 -171 0
16 -28 172 174 0
16 -28 172 -174 0
-172 15 173 175 0
-172 15 173 -175 0
-173 26 -22 176 0
-173 26 -22 -176 0
23 -29 -15 -7 0
-3 6 177 179 0
-3 6 177 -179 0
-177 28 178 180 0
-177 28 178 -180 0
-178 2 27 181 0
-178 2 27 -181 0
-9 16 182 184 0
-9 16 182 -184 0
-182 -3 183 185 0
-182 -3 183 -185 0
-183 18 -10 186 0
-183 18 -10 -186 0
15 -16 187 189 0
15 -16 187 -189 0
-187 -28 188 190 0
-187 -28 188 -190 0
-188 4 -20 191 0
-188 4 -20 -191 0
-29 -26 192 194 0
-29 -26 192 -194 0
-192 -2 193 195 0
-192 -2 193 -195 0
-193 -18 14 196 0
-193 -18 14 -196 0
-24 17 197 199 0
-24 17 197 -199 0
-197 -13 198 200 0
-197 -13 198 -200 0
-198 22 23 201 0
-198 22 23 -201 0
-16 -26 202 204 0
-16 -26 202 -204 0
-202 -5 203 205 0
-202 -5 203 -205 0
-203 28 10 206 0
-203 28 10 -206 0
-13 -21 1 19 0
-29 7 -2 -25 0
5 22 21 10 0
-6 -18 207 209 0
-6 -18 207 -209 0
-207 17 208 210 0
-207 17 208 -210 0
-208 -13 -2 211 0
-208 -13 -2 -211 0
20 3 212 214 0
20 3 212 -214 0
-212 -17 213 215 0
-212 -17 213 -215 0
-213 7 12 216 0
-213 7 12 -216 0
-12 -24 217 219 0
-12 -24 217 -219 0
-217 17 218 220 0
-217 17 218 -220 0
-218 -28 -8 221 0
-218 -28 -8 -221 0
-20 2 222 224 0
-20 2 222 -224 0
-222 1 223 225 0
-222 1 223 -225 0
-223 -28 14 226 0
-223 -28 14 -226 0
10 -8 227 229 0
10 -8 227 -229 0
-227 -29 228 230 0
-227 -29 228 -230 0
-228 -2 -18 231 0
-228 -2 -18 -231 0
-27 29 7 -26 0
-22 -12 232 234 0
-22 -12 232 -234 0
-232 25 233 235 0
-232 25 233 -235 0
-233 23 -6 236 0
-233 23 -6 -236 0
-1 10 237 239 0
-1 10 237 -239 0
-237 -5 238 240 0
-237 -5 238 -240 0
-238 -21 -2 241 0
-238 -21 -2 -241 0
28 24 242 244 0
28 24 242 -244 0
-242 -18 243 245 0
-242 -18 243 -245 0
-243 -26 14 246 0
-243 -26 14 -246 0
23 30 247 249 0
23 30 247 -249 0
-247 -29 248 250 0
-247 -29 248 -250 0
-248 -22 -19 251 0
-248 -22 -19 -251 0
21 -17 252 254 0
21 -17 252 -254 0
-252 4 253 255 0
-252 4 253 -255 0
-253 -6 23 256 0
-253 -6 23 -256 0
16 -3 -21 13 0
-13 23 257 259 0
-13 23 257 -259 0
-257 12 258 260 0
-257 12 258 -260 0
-258 7 -9 261 0
-258 7 -9 -261 0
-24 23 262 264 0
-24 23 262 -264 0
-262 16 263 265 0
-262 16 263 -265 0
-263 -19 -5 266 0
-263 -19 -5 -266 0
22 14 30 -1 0
-5 -8 267 269 0
-5 -8 267 -269 0
-267 -18 268 270 0
-267 -18 268 -270 0
-268 -12 13 271 0
-268 -12 13 -271 0
16 -28 272 274 0
16 -28 272 -274 0
-272 10 273 275 0
-272 10 273 -275 0
-273 -3 11 276 0
-273 -3 11 -276 0
-29 27 15 -10 0
-6 -26 277 279 0
-6 -26 277 -279 0
-277 28 278 280 0
-277 28 278 -280 0
-278 2 -5 281 0
-278 2 -5 -281 0
-13 6 282 284 0
-13 6 282 -284 0
-282 5 283 285 0
-282 5 283 -285 0
-283 8 2 286 0
-283 8 2 -286 0
-29 -15 287 289 0
-29 -15 287 -289 0
-287 3 288 290 0
-287 3 288 -290 0
-288 -19 9 291 0
-288 -19 9 -291 0
-18 14 15 29 0
24 -8 292 294 0
24 -8 292 -294 0
-292 -15 293 295 0
-292 -15 293 -295 0
-293 26 -21 296 0
-293 26 -21 -296 0
25 -24 297 299 0
25 -24 297 -299 0
-297 -23 298 300 0
-297 -23 298 -300 0
-298 -14 -21 301 0
-298 -14 -21 -301 0
16 -15 302 304 0
16 -15 302 -304 0
-302 -19 303 305 0
-302 -19 303 -305 0
-303 21 11 306 0
-303 21 11 -306 0
-27 -6 29 11 0
-21 8 307 309 0
-21 8 307 -309 0
-307 -7 308 310 0
-307 -7 308 -310 0
-308 -10 9 311 0
-308 -10 9 -311 0
-9 12 312 314 0
-9 12 312 -314 0
-312 22 313 315 0
-312 22 313 -315 0
-313 8 23 316 0
-313 8 23 -316 0
-26 -17 317 319 0
-26 -17 317 -319 0
-317 8 318 320 0
-317 8 318 -320 0
-318 19 22 321 0
-318 19 22 -321 0
8 -2 5 3 0
21 -12 20 322 0
21 -12 20 -322 0
28 -9 323 325 0
28 -9 323 -325 0
-323 11 324 326 0
-323 11 324 -326 0
-324 12 -23 327 0
-324 12 -23 -327 0
19 1 328 330 0
19 1 328 -330 0
-328 -10 329 331 0
-328 -10 329 -331 0
-329 27 13 332 0
-329 27 13 -332 0
28 24 333 335 0
28 24 333 -335 0
-333 2 334 336 0
-333 2 334 -336 0
-334 25 -12 337 0
-334 25 -12 -337 0
13 26 338 340 0
13 26 338 -340 0
-338 -10 339 341 0
-338 -10 339 -341 0
-339 -15 -23 342 0
-339 -15 -23 -342 0
5 15 343 345 0
5 15 343 -345 0
-343 29 344 346 0
-343 29 344 -346 0
-344 -3 -9 347 0
-344 -3 -9 -347 0
-1 -11 348 350 0
-1 -11 348 -350 0
-348 -4 349 351 0
-348 -4 349 -351 0
-349 18 7 352 0
-349 18 7 -352 0
-20 16 353 355 0
-20 16 353 -355 0
-353 -28 354 356 0
-353 -28 354 -356 0
-354 21 -9 357 0
-354 21 -9 -357 0
-25 -21 -24 -8 0
-3 20 358 360 0
-3 20 358 -360 0
-358 -15 359 361 0
-358 -15 359 -361 0
-359 26 8 362 0
-359 26 8 -362 0
16 27 363 365 0
16 27 363 -365 0
-363 -12 364 366 0
-363 -12 364 -366 0
-364 18 -24 367 0
-364 18 -24 -367 0
-21 -9 368 370 0
-21 -9 368 -370 0
-368 5 369 371 0
-368 5 369 -371 0
-369 6 27 372 0
-369 6 27 -372 0
-6 -25 373 375 0
-6 -25 373 -375 0
-373 -21 374 376 0
-373 -21 374 -376 0
-374 7 2 377 0
-374 7 2 -377 0
-30 -5 378 380 0
-30 -5 378 -380 0
-378 -1 379 381 0
-378 -1 379 -381 0
-379 16 -24 382 0
-379 16 -24 -382 0
7 22 383 385 0
7 22 383 -385 0
-383 -12 384 386 0
-383 -12 384 -386 0
-384 17 14 387 0
-384 17 14 -387 0
12 -8 -15 388 0
12 -8 -15 -388 0
6 -2 27 17 0
-19 25 389 391 0
-19 25 389 -391 0
-389 26 390 392 0
-389 26 390 -392 0
-390 6 24 393 0
-390 6 24 -393 0
-22 3 -11 -4 0
20 6 394 396 0
20 6 394 -396 0
-394 -18 395 397 0
-394 -18 395 -397 0
-395 -21 -10 398 0
-395 -21 -10 -398 0
1 30 399 401 0
1 30 399 -401 0
-399 -18 400 402 0
-399 -18 400 -402 0
-400 -16 8 403 0
-400 -16 8 -403 0
7 26 404 406 0
7 26 404 -406 0
-404 1 405 407 0
-404 1 405 -407 0
-405 -20 -12 408 0
-405 -20 -12 -408 0
-25 -17 409 411 0
-25 -17 409 -411 0
-409 -7 410 412 0
-409 -7 410 -412 0
-410 14 -16 413 0
-410 14 -16 -413 0
-14 22 414 416 0
-14 22 414 -416 0
-414 27 415 417 0
-414 27 415 -417 0
-415 -13 18 418 0
-415 -13 18 -418 0
-17 25 419 421 0
-17 25 419 -421 0
-419 2 420 422 0
-419 2 420 -422 0
-420 -7 21 423 0
-420 -7 21 -423 0
-22 14 424 426 0
-22 14 424 -426 0
-424 1 425 427 0
-424 1 425 -427 0
-425 -13 -3 428 0
-425 -13 -3 -428 0
10 -27 429 431 0
10 -27 429 -431 0
-429 17 430 432 0
-429 17 430 -432 0
-430 -14 -11 433 0
-430 -14 -11 -433 0
20 8 434 436 0
20 8 434 -436 0
-434 26 435 437 0
-434 26 435 -437 0
-435 -24 18 438 0
-435 -24 18 -438 0
-18 1 439 441 0
-18 1 439 -441 0
-439 -5 440 442 0
-439 -5 440 -442 0
-440 -12 2 443 0
-440 -12 2 -443 0
-21 -1 444 446 0
-21 -1 444 -446 0
-444 -4 445 447 0
-444 -4 445 -447 0
-445 29 -13 448 0
-445 29 -13 -448 0
2 11 7 25 0
6 -10 23 -28 0
12 16 30 15 0
7 -19 449 451 0
7 -19 449 -451 0
-449 -3 450 452 0
-449 -3 450 -452 0
-450 30 -8 453 0
-450 30 -8 -453 0
-25 -27 -1 19 0
-15 -18 454 456 0
-15 -18 454 -456 0
-454 -3 455 457 0
-454 -3 455 -457 0
-455 -19 -13 458 0
-455 -19 -13 -458 0
7 9 459 461 0
7 9 459 -461 0
-459 17 460 462 0
-459 17 460 -462 0
-460 2 22 463 0
-460 2 22 -463 0
-22 2 464 466 0
-22 2 464 -466 0
-464 7 465 467 0
-464 7 465 -467 0
-465 29 4 468 0
-465 29 4 -468 0
22 16 469 471 0
22 16 469 -471 0
-469 15 470 472 0
-469 15 470 -472 0
-470 27 -30 473 0
-470 27 -30 -473 0
2 -8 -15 -10 0
29 -23 474 476 0
29 -23 474 -476 0
-474 24 475 477 0
-474 24 475 -477 0
-475 -4 26 478 0
-475 -4 26 -478 0
8 -19 479 481 0
8 -19 479 -481 0
-479 3 480 482 0
-479 3 480 -482 0
-480 5 10 483 0
-480 5 10 -483 0
25 -8 484 486 0
25 -8 484 -486 0
-484 21 485 487 0
-484 21 485 -487 0
-485 30 27 488 0
-485 30 27 -488 0
-24 4 -22 -23 0
29 21 489 491 0
29 21 489 -491 0
-489 -30 490 492 0
-489 -30 490 -492 0
-490 -1 11 493 0
-490 -1 11 -493 0
-7 -4 494 496 0
-7 -4 494 -496 0
-494 14 495 497 0
-494 14 495 -497 0
-495 -24 16 498 0
-495 -24 16 -498 0
12 -2 499 501 0
12 -2 499 -501 0
-499 10 500 502 0
-499 10 500 -502 0
-500 -9 -20 503 0
-500 -9 -20 -503 0
-19 16 504 506 0
-19 16 504 -506 0
-504 -14 505 507 0
-504 -14 505 -507 0
-505 -13 -3 508 0
-505 -13 -3 -508 0
-3 11 509 511 0
-3 11 509 -511 0
-509 -21 510 512 0
-509 -21 510 -512 0
-510 8 -19 513 0
-510 8 -19 -513 0
29 11 514 516 0
29 11 514 -516 0
-514 -30 515 517 0
-514 -30 515 -517 0
-515 -13 9 518 0
-515 -13 9 -518 0
6 13 519 521 0
6 13 519 -521 0
-519 -2 520 522 0
-519 -2 520 -522 0
-520 -15 -19 523 0
-520 -15 -19 -523 0
-2 -3 524 526 0
-2 -3 524 -526 0
-524 -18 525 527 0
-524 -18 525 -527 0
-525 -28 -5 528 0
-525 -28 -5 -528 0
-8 4 529 531 0
-8 4 529 -531 0
-529 10 530 532 0
-529 10 530 -532 0
-530 -16 -28 533 0
-530 -16 -28 -533 0
1 -20 534 536 0
1 -20 534 -536 0
-534 -19 535 537 0
-534 -19 535 -537 0
-535 21 -22 538 0
-535 21 -22 -538 0
11 25 539 541 0
11 25 539 -541 0
-539 -7 540 542 0
-539 -7 540 -542 0
-540 -1 -15 543 0
-540 -1 -15 -543 0
25 -9 -23 14 0
25 3 544 546 0
25 3 544 -546 0
-544 -15 545 547 0
-544 -15 545 -547 0
-545 -26 30 548 0
-545 -26 30 -548 0
21 -10 -26 7 0
26 22 -18 6 0
24 -4 549 551 0
24 -4 549 -551 0
-549 -5 550 552 0
-549 -5 550 -552 0
-550 19 -11 553 0
-550 19 -11 -553 0
-11 -30 554 556 0
-11 -30 554 -556 0
-554 28 555 557 0
-554 28 555 -557 0
-555 29 -13 558 0
-555 29 -13 -558 0
-11 -22 559 561 0
-11 -22 559 -561 0
-559 -20 560 562 0
-559 -20 560 -562 0
-560 -6 28 563 0
-560 -6 28 -563 0
29 -27 564 566 0
29 -27 564 -566 0
-564 -9 565 567 0
-564 -9 565 -567 0
-565 21 20 568 0
-565 21 20 -568 0
-18 27 569 571 0
-18 27 569 -571 0
-569 5 570 572 0
-569 5 570 -572 0
-570 16 10 573 0
-570 16 10 -573 0
23 6 574 576 0
23 6 574 -576 0
-574 -28 575 577 0
-574 -28 575 -577 0
-575 1 14 578 0
-575 1 14 -578 0
-9 -27 579 581 0
-9 -27 579 -581 0
-579 -25 580 582 0
-579 -25 580 -582 0
-580 7 -4 583 0
-580 7 -4 -583 0
-11 9 -26 -27 0
-14 -20 584 586 0
-14 -20 584 -586 0
-584 -26 585 587 0
-584 -26 585 -587 0
-585 10 -15 588 0
-585 10 -15 -588 0
7 6 589 591 0
7 6 589 -591 0
-589 -28 590 592 0
-589 -28 590 -592 0
-590 27 17 593 0
-590 27 17 -593 0
25 -14 594 596 0
25 -14 594 -596 0
-594 -2 595 597 0
-594 -2 595 -597 0
-595 -13 5 598 0
-595 -13 5 -598 0
-24 -8 599 601 0
-24 -8 599 -601 0
-599 21 600 602 0
-599 21 600 -602 0
-600 19 -10 603 0
-600 19 -10 -603 0
-3 -6 604 606 0
-3 -6 604 -606 0
-604 7 605 607 0
-604 7 605 -607 0
-605 -16 5 608 0
-605 -16 5 -608 0
-15 -13 609 611 0
-15 -13 609 -611 0
-609 -4 610 612 0
-609 -4 610 -612 0
-610 -5 19 613 0
-610 -5 19 -613 0
-21 -14 614 616 0
-21 -14 614 -616 0
-614 1 615 617 0
-614 1 615 -617 0
-615 -30 -15 618 0
-615 -30 -15 -618 0
25 -24 619 621 0
25 -24 619 -621 0
-619 11 620 622 0
-619 11 620 -622 0
-620 -30 2 623 0
-620 -30 2 -623 0
24 -23 624 626 0
24 -23 624 -626 0
-624 14 625 627 0
-624 14 625 -627 0
-625 -18 28 628 0
-625 -18 28 -628 0
4 -30 629 631 0
4 -30 629 -631 0
-629 -6 630 632 0
-629 -6 630 -632 0
-630 24 20 633 0
-630 24 20 -633 0
-24 -5 -30 4 0
-24 -14 10 -28 0
12 15 634 636 0
12 15 634 -636 0
-634 -23 635 637 0
-634 -23 635 -637 0
-635 -29 7 638 0
-635 -29 7 -638 0
-10 -28 24 22 0
13 24 639 641 0
13 24 639 -641 0
-639 -17 640 642 0
-639 -17 640 -642 0
-640 -21 -6 643 0
-640 -21 -6 -643 0
3 10 644 646 0
3 10 644 -646 0
-644 16 645 647 0
-644 16 645 -647 0
-645 28 -21 648 0
-645 28 -21 -648 0
-26 -14 29 1 0
6 -24 -14 28 0
20 6 7 10 0
-16 -6 649 651 0
-16 -6 649 -651 0
-649 -1 650 652 0
-649 -1 650 -652 0
-650 30 -14 653 0
-650 30 -14 -653 0
24 -26 654 656 0
24 -26 654 -656 0
-654 30 655 657 0
-654 30 655 -657 0
-655 23 13 658 0
-655 23 13 -658 0
21 -5 659 661 0
21 -5 659 -661 0
-659 -28 660 662 0
-659 -28 660 -662 0
-660 1 -3 663 0
-660 1 -3 -663 0
4 16 664 666 0
4 16 664 -666 0
-664 3 665 667 0
-664 3 665 -667 0
-665 -13 -23 668 0
-665 -13 -23 -668 0
27 -14 21 18 0
-19 -10 26 23 0
-23 30 669 671 0
-23 30 669 -671 0
-669 10 670 672 0
-669 10 670 -672 0
-670 -15 -3 673 0
-670 -15 -3 -673 0
-15 13 674 676 0
-15 13 674 -676 0
-674 4 675 677 0
-674 4 675 -677 0
-675 16 28 678 0
-675 16 28 -678 0
-26 4 -19 28 0
27 17 679 681 0
27 17 679 -681 0
-679 9 680 682 0
-679 9 680 -682 0
-680 -22 -21 683 0
-680 -22 -21 -683 0
-19 12 684 686 0
-19 12 684 -686 0
-684 17 685 687 0
-684 17 685 -687 0
-685 -29 16 688 0
-685 -29 16 -688 0
-13 9 24 -10 0
-27 30 689 691 0
-27 30 689 -691 0
-689 -10 690 692 0
-689 -10 690 -692 0
-690 -4 -20 693 0
-690 -4 -20 -693 0
-6 -18 -10 27 0
17 -20 694 696 0
17 -20 694 -696 0
-694 24 695 697 0
-694 24 695 -697 0
-695 -10 -30 698 0
-695 -10 -30 -698 0
17 -11 699 701 0
17 -11 699 -701 0
-699 -3 700 702 0
-699 -3 700 -702 0
-700 20 -2 703 0
-700 20 -2 -703 0
3 17 -12 -23 0
7 -14 704 706 0
7 -14 704 -706 0
-704 1 705 707 0
-704 1 705 -707 0
-705 -3 18 708 0
-705 -3 18 -708 0
15 -14 709 711 0
15 -14 709 -711 0
-709 17 710 712 0
-709 17 710 -712 0
-710 -25 16 713 0
-710 -25 16 -713 0
8 10 714 716 0
8 10 714 -716 0
-714 -26 715 717 0
-714 -26 715 -717 0
-715 12 -11 718 0
-715 12 -11 -718 0
-14 12 719 721 0
-14 12 719 -721 0
-719 24 720 722 0
-719 24 720 -722 0
-720 -22 -8 723 0
-720 -22 -8 -723 0
-2 19 724 726 0
-2 19 724 -726 0
-724 13 725 727 0
-724 13 725 -727 0
-725 -17 26 728 0
-725 -17 26 -728 0
-21 14 729 731 0
-21 14 729 -731 0
-729 -16 730 732 0
-729 -16 730 -732 0
-730 -27 8 733 0
-730 -27 8 -733 0
-1 19 734 736 0
-1 19 734 -736 0
-734 12 735 737 0
-734 12 735 -737 0
-735 2 -17 738 0
-735 2 -17 -738 0
-5 21 739 741 0
-5 21 739 -741 0
-739 24 740 742 0
-739 24 740 -742 0
-740 18 22 743 0
-740 18 22 -743 0
-26 29 744 746 0
-26 29 744 -746 0
-744 -16 745 747 0
-744 -16 745 -747 0
-745 -7 8 748 0
-745 -7 8 -748 0
-2 -19 749 751 0
-2 -19 749 -751 0
-749 -23 750 752 0
-749 -23 750 -752 0
-750 -1 -9 753 0
-750 -1 -9 -753 0
23 15 754 756 0
23 15 754 -756 0
-754 -26 755 757 0
-754 -26 755 -757 0
-755 -5 11 758 0
-755 -5 11 -758 0
11 17 -7 -6 0
25 11 759 761 0
25 11 759 -761 0
-759 -29 760 762 0
-759 -29 760 -762 0
-760 7 15 763 0
-760 7 15 -763 0
-20 -29 764 766 0
-20 -29 764 -766 0
-764 5 765 767 0
-764 5 765 -767 0
-765 3 19 768 0
-765 3 19 -768 0
-16 9 769 771 0
-16 9 769 -771 0
-769 13 770 772 0
-769 13 770 -772 0
-770 -11 -28 773 0
-770 -11 -28 -773 0
-17 -25 774 776 0
-17 -25 774 -776 0
-774 1 775 777 0
-774 1 775 -777 0
-775 -7 9 778 0
-775 -7 9 -778 0
3 -19 779 781 0
3 -19 779 -781 0
-779 12 780 782 0
-779 12 780 -782 0
-780 -17 -11 783 0
-780 -17 -11 -783 0
-12 -19 784 786 0
-12 -19 784 -786 0
-784 27 785 787 0
-784 27 785 -787 0
-785 22 -17 788 0
-785 22 -17 -788 0
21 -25 789 791 0
21 -25 789 -791 0
-789 13 790 792 0
-789 13 790 -792 0
-790 -7 18 793 0
-790 -7 18 -793 0
-1 9 18 26 0
26 11 794 796 0
26 11 794 -796 0
-794 -16 795 797 0
-794 -16 795 -797 0
-795 4 -29 798 0
-795 4 -29 -798 0
18 11 799 801 0
18 11 799 -801 0
-799 -20 800 802 0
-799 -20 800 -802 0
-800 -27 -1 803 0
-800 -27 -1 -803 0
-11 -3 2 27 0
20 3 804 806 0
20 3 804 -806 0
-804 -27 805 807 0
-804 -27 805 -807 0
-805 -25 -22 808 0
-805 -25 -22 -808 0
15 -1 809 811 0
15 -1 809 -811 0
-809 24 810 812 0
-809 24 810 -812 0
-810 20 3 813 0
-810 20 3 -813 0
-28 9 814 816 0
-28 9 814 -816 0
-814 5 815 817 0
-814 5 815 -817 0
-815 -21 16 818 0
-815 -21 16 -818 0
9 10 819 821 0
9 10 819 -821 0
-819 28 820 822 0
-819 28 820 -822 0
-820 16 -25 823 0
-820 16 -25 -823 0
-2 4 -29 -20 0
14 25 824 826 0
14 25 824 -826 0
-824 29 825 827 0
-824 29 825 -827 0
-825 -9 5 828 0
-825 -9 5 -828 0
-18 -24 829 831 0
-18 -24 829 -831 0
-829 -9 830 832 0
-829 -9 830 -832 0
-830 15 -3 833 0
-830 15 -3 -833 0
-23 -27 834 836 0
-23 -27 834 -836 0
-834 3 835 837 0
-834 3 835 -837 0
-835 12 28 838 0
-835 12 28 -838 0
-16 -1 839 841 0
-16 -1 839 -841 0
-839 14 840 842 0
-839 14 840 -842 0
-840 11 -29 843 0
-840 11 -29 -843 0
-25 3 844 846 0
-25 3 844 -846 0
-844 30 845 847 0
-844 30 845 -847 0
-845 11 12 848 0
-845 11 12 -848 0
1 -8 849 851 0
1 -8 849 -851 0
-849 20 850 852 0
-849 20 850 -852 0
-850 16 -12 853 0
-850 16 -12 -853 0
22 -7 20 29 0
-30 -5 854 856 0
-30 -5 854 -856 0
-854 29 855 857 0
-854 29 855 -857 0
-855 -16 -8 858 0
-855 -16 -8 -858 0
-11 -8 859 861 0
-11 -8 859 -861 0
-859 -4 860 862 0
-859 -4 860 -862 0
-860 -18 -1 863 0
-860 -18 -1 -863 0
24 29 20 17 0
-8 29 17 11 0
5 -19 -23 -9 0
3 -15 864 866 0
3 -15 864 -866 0
-864 -4 865 867 0
-864 -4 865 -867 0
-865 -14 11 868 0
-865 -14 11 -868 0
-4 -18 26 -5 0
-25 -8 18 -9 0
-8 -24 869 871 0
-8 -24 869 -871 0
-869 -11 870 872 0
-869 -11 870 -872 0
-870 17 19 873 0
-870 17 19 -873 0
26 23 874 876 0
26 23 874 -876 0
-874 28 875 877 0
-874 28 875 -877 0
-875 17 30 878 0
-875 17 30 -878 0
-17 -9 879 881 0
-17 -9 879 -881 0
-879 27 880 882 0
-879 27 880 -882 0
-880 14 -25 883 0
-880 14 -25 -883 0
12 -23 884 886 0
12 -23 884 -886 0
-884 -6 885 887 0
-884 -6 885 -887 0
-885 -4 27 888 0
-885 -4 27 -888 0
10 3 20 7 0
26 19 1 17 0
21 -24 889 891 0
21 -24 889 -891 0
-889 17 890 892 0
-889 17 890 -892 0
-890 28 -15 893 0
-890 28 -15 -893 0
5 3 2 894 0
5 3 2 -894 0
-7 -8 895 897 0
-7 -8 895 -897 0
-895 -21 896 898 0
-895 -21 896 -898 0
-896 29 -15 899 0
-896 29 -15 -899 0
-19 -29 900 902 0
-19 -29 900 -902 0
-900 17 901 903 0
-900 17 901 -903 0
-901 10 -15 904 0
-901 10 -15 -904 0
-22 -23 905 907 0
-22 -23 905 -907 0
-905 18 906 908 0
-905 18 906 -908 0
-906 -4 -27 909 0
-906 -4 -27 -909 0
26 20 910 912 0
26 20 910 -912 0
-910 -24 911 913 0
-910 -24 911 -913 0
-911 1 -6 914 0
-911 1 -6 -914 0
10 1 915 917 0
10 1 915 -917 0
-915 -28 916 918 0
-915 -28 916 -918 0
-916 20 -30 919 0
-916 20 -30 -919 0
-18 27 -28 -7 0
-1 2 -22 16 0
28 -17 920 922 0
28 -17 920 -922 0
-920 5 921 923 0
-920 5 921 -923 0
-921 -16 13 924 0
-921 -16 13 -924 0
-8 19 -10 -5 0
-1 -27 -29 925 0
-1 -27 -29 -925 0
-30 13 926 928 0
-30 13 926 -928 0
-926 22 927 929 0
-926 22 927 -929 0
-927 15 19 930 0
-927 15 19 -930 0
22 2 24 20 0
25 -16 931 933 0
25 -16 931 -933 0
-931 9 932 934 0
-931 9 932 -934 0
-932 30 -6 935 0
-932 30 -6 -935 0
13 -12 936 938 0
13 -12 936 -938 0
-936 -6 937 939 0
-936 -6 937 -939 0
-937 -7 -26 940 0
-937 -7 -26 -940 0
11 -29 941 943 0
11 -29 941 -943 0
-941 -23 942 944 0
-941 -23 942 -944 0
-942 -13 -12 945 0
-942 -13 -12 -945 0
-19 -30 946 948 0
-19 -30 946 -948 0
-946 -18 947 949 0
-946 -18 947 -949 0
-947 25 9 950 0
-947 25 9 -950 0
-29 20 -5 16 0
28 12 30 -4 0
-14 -22 951 953 0
-14 -22 951 -953 0
-951 -8 952 954 0
-951 -8 952 -954 0
-952 -3 30 955 0
-952 -3 30 -955 0
-11 -10 956 958 0
-11 -10 956 -958 0
-956 -18 957 959 0
-956 -18 957 -959 0
-957 14 -5 960 0
-957 14 -5 -960 0
8 -2 961 963 0
8 -2 961 -963 0
-961 -7 962 964 0
-961 -7 962 -964 0
-962 -5 -9 965 0
-962 -5 -9 -965 0
27 17 3 7 0
19 -30 966 968 0
19 -30 966 -968 0
-966 21 967 969 0
-966 21 967 -969 0
-967 -8 -17 970 0
-967 -8 -17 -970 0
1 -3 971 973 0
1 -3 971 -973 0
-971 22 972 974 0
-971 22 972 -974 0
-972 23 -13 975 0
-972 23 -13 -975 0
-23 14 976 978 0
-23 14 976 -978 0
-976 -12 977 979 0
-976 -12 977 -979 0
-977 -29 -2 980 0
-977 -29 -2 -980 0
-14 -29 981 983 0
-14 -29 981 -983 0
-981 9 982 984 0
-981 9 982 -984 0
-982 -13 -24 985 0
-982 -13 -24 -985 0
22 -8 986 988 0
22 -8 986 -988 0
-986 -4 987 989 0
-986 -4 987 -989 0
-987 -18 -30 990 0
-987 -18 -30 -990 0
-8 -7 991 993 0
-8 -7 991 -993 0
-991 21 992 994 0
-991 21 992 -994 0
-992 -27 -6 995 0
-992 -27 -6 -995 0
11 -29 996 998 0
11 -29 996 -998 0
-996 15 997 999 0
-996 15 997 -999 0
-997 26 -24 1000 0
-997 26 -24 -1000 0
-7 11 1001 1003 0
-7 11 1001 -1003 0
-1001 18 1002 1004 0
-1001 18 1002 -1004 0
-1002 27 16 1005 0
-1002 27 16 -1005 0
-9 29 17 -22 0
-24 -18 1006 1008 0
-24 -18 1006 -1008 0
-1006 -11 1007 1009 0
-1006 -11 1007 -1009 0
-1007 9 4 1010 0
-1007 9 4 -1010 0
-27 18 1011 1013 0
-27 18 1011 -1013 0
-1011 -25 1012 1014 0
-1011 -25 1012 -1014 0
-1012 9 -11 1015 0
-1012 9 -11 -1015 0
-14 5 1016 1018 0
-14 5 1016 -1018 0
-1016 -27 1017 1019 0
-1016 -27 1017 -1019 0
-1017 -28 9 1020 0
-1017 -28 9 -1020 0
30 -24 1021 1023 0
30 -24 1021 -1023 0
-1021 12 1022 1024 0
-1021 12 1022 -1024 0
-1022 29 -27 1025 0
-1022 29 -27 -1025 0
19 -9 1026 1028 0
19 -9 1026 -1028 0
-1026 -22 1027 1029 0
-1026 -22 1027 -1029 0
-1027 -28 4 1030 0
-1027 -28 4 -1030 0
10 -21 1031 1033 0
10 -21 1031 -1033 0
-1031 -28 1032 1034 0
-1031 -28 1032 -1034 0
-1032 -27 -1 1035 0
-1032 -27 -1 -1035 0
-9 27 -28 -5 0
27 7 1036 1038 0
27 7 1036 -1038 0
-1036 14 1037 1039 0
-1036 14 1037 -1039 0
-1037 -10 -9 1040 0
-1037 -10 -9 -1040 0
-27 26 1041 1043 0
-27 26 1041 -1043 0
-1041 -30 1042 1044 0
-1041 -30 1042 -1044 0
-1042 15 8 1045 0
-1042 15 8 -1045 0
-21 25 -22 4 0
-25 1 1046 1048 0
-25 1 1046 -1048 0
-1046 -28 1047 1049 0
-1046 -28 1047 -1049 0
-1047 -2 -10 1050 0
-1047 -2 -10 -1050 0
12 -28 1051 1053 0
12 -28 1051 -1053 0
-1051 1 1052 1054 0
-1051 1 1052 -1054 0
-1052 6 -30 1055 0
-1052 6 -30 -1055 0
15 -12 25 1056 0
15 -12 25 -1056 0
11 -4 -12 -28 0
10 27 1057 1059 0
10 27 1057 -1059 0
-1057 3 1058 1060 0
-1057 3 1058 -1060 0
-1058 2 11 1061 0
-1058 2 11 -1061 0
-21 1 1062 1064 0
-21 1 1062 -1064 0
-1062 15 1063 1065 0
-1062 15 1063 -1065 0
-1063 26 12 1066 0
-1063 26 12 -1066 0
3 -12 1067 1069 0
3 -12 1067 -1069 0
-1067 28 1068 1070 0
-1067 28 1068 -1070 0
-1068 -23 7 1071 0
-1068 -23 7 -1071 0
24 12 1072 1074 0
24 12 1072 -1074 0
-1072 21 1073 1075 0
-1072 21 1073 -1075 0
-1073 -27 18 1076 0
-1073 -27 18 -1076 0
17 27 1077 1079 0
17 27 1077 -1079 0
-1077 19 1078 1080 0
-1077 19 1078 -1080 0
-1078 18 -9 1081 0
-1078 18 -9 -1081 0
8 10 -15 -26 0
-13 6 1082 1084 0
-13 6 1082 -1084 0
-1082 -28 1083 1085 0
-1082 -28 1083 -1085 0
-1083 -23 -17 1086 0
-1083 -23 -17 -1086 0
24 -12 1087 1089 0
24 -12 1087 -1089 0
-1087 28 1088 1090 0
-1087 28 1088 -1090 0
-1088 8 -26 1091 0
-1088 8 -26 -1091 0
-15 -20 -7 18 0
-12 25 9 15 0
27 -1 1092 1094 0
27 -1 1092 -1094 0
-1092 -18 1093 1095 0
-1092 -18 1093 -1095 0
-1093 -5 23 1096 0
-1093 -5 23 -1096 0
-5 15 1097 1099 0
-5 15 1097 -1099 0
-1097 22 1098 1100 0
-1097 22 1098 -1100 0
-1098 -23 -10 1101 0
-1098 -23 -10 -1101 0
-13 2 1102 1104 0
-13 2 1102 -1104 0
-1102 -20 1103 1105 0
-1102 -20 1103 -1105 0
-1103 21 -17 1106 0
-1103 21 -17 -1106 0
6 11 1107 1109 0
6 11 1107 -1109 0
-1107 26 1108 1110 0
-1107 26 1108 -1110 0
-1108 8 12 1111 0
-1108 8 12 -1111 0
17 16 3 -30 0
-30 -12 1112 1114 0
-30 -12 1112 -1114 0
-1112 -20 1113 1115 0
-1112 -20 1113 -1115 0
-1113 23 -4 1116 0
-1113 23 -4 -1116 0
-22 -23 1117 1119 0
-22 -23 1117 -1119 0
-1117 -4 1118 1120 0
-1117 -4 1118 -1120 0
-1118 12 27 1121 0
-1118 12 27 -1121 0
-6 29 1122 1124 0
-6 29 1122 -1124 0
-1122 13 1123 1125 0
-1122 13 1123 -1125 0
-1123 -20 -14 1126 0
-1123 -20 -14 -1126 0
24 -15 1127 1129 0
24 -15 1127 -1129 0
-1127 19 1128 1130 0
-1127 19 1128 -1130 0
-1128 16 13 1131 0
-1128 16 13 -1131 0
-14 -2 1132 1134 0
-14 -2 1132 -1134 0
-1132 -23 1133 1135 0
-1132 -23 1133 -1135 0
-1133 5 30 1136 0
-1133 5 30 -1136 0
29 -20 1137 1139 0
29 -20 1137 -1139 0
-1137 21 1138 1140 0
-1137 21 1138 -1140 0
-1138 23 -1 1141 0
-1138 23 -1 -1141 0
-3 2 1142 1144 0
-3 2 1142 -1144 0
-1142 14 1143 1145 0
-1142 14 1143 -1145 0
-1143 1 25 1146 0
-1143 1 25 -1146 0
1 -23 1147 1149 0
1 -23 1147 -1149 0
-1147 25 1148 1150 0
-1147 25 1148 -1150 0
-1148 -17 22 1151 0
-1148 -17 22 -1151 0
21 -2 1152 1154 0
21 -2 1152 -1154 0
-1152 -17 1153 1155 0
-1152 -17 1153 -1155 0
-1153 7 -12 1156 0
-1153 7 -12 -1156 0
22 24 1157 1159 0
22 24 1157 -1159 0
-1157 -14 1158 1160 0
-1157 -14 1158 -1160 0
-1158 -19 6 1161 0
-1158 -19 6 -1161 0
24 -25 1162 1164 0
24 -25 1162 -1164 0
-1162 -8 1163 1165 0
-1162 -8 1163 -1165 0
-1163 -5 26 1166 0
-1163 -5 26 -1166 0
3 -17 1167 1169 0
3 -17 1167 -1169 0
-1167 22 1168 1170 0
-1167 22 1168 -1170 0
-1168 -25 -16 1171 0
-1168 -25 -16 -1171 0
-26 -28 -7 1172 0
-26 -28 -7 -1172 0
-7 10 -24 26 0
-4 -11 1173 1175 0
-4 -11 1173 -1175 0
-1173 -12 1174 1176 0
-1173 -12 1174 -1176 0
-1174 6 10 1177 0
-1174 6 10 -1177 0
1 9 1178 1180 0
1 9 1178 -1180 0
-1178 -26 1179 1181 0
-1178 -26 1179 -1181 0
-1179 -27 -20 1182 0
-1179 -27 -20 -1182 0
26 12 1183 1185 0
26 12 1183 -1185 0
-1183 14 1184 1186 0
-1183 14 1184 -1186 0
-1184 -11 3 1187 0
-1184 -11 3 -1187 0
-1 -26 -9 15 0
-20 -11 1188 1190 0
-20 -11 1188 -1190 0
-1188 -8 1189 1191 0
-1188 -8 1189 -1191 0
-1189 10 25 1192 0
-1189 10 25 -1192 0
13 28 8 -10 0
-11 -2 1193 1195 0
-11 -2 1193 -1195 0
-1193 -8 1194 1196 0
-1193 -8 1194 -1196 0
-1194 24 28 1197 0
-1194 24 28 -1197 0
-30 26 8 16 0
6 15 1198 1200 0
6 15 1198 -1200 0
-1198 -20 1199 1201 0
-1198 -20 1199 -1201 0
-1199 7 28 1202 0
-1199 7 28 -1202 0
-28 -29 1203 1205 0
-28 -29 1203 -1205 0
-1203 12 1204 1206 0
-1203 12 1204 -1206 0
-1204 19 -7 1207 0
-1204 19 -7 -1207 0
-10 -1 1208 1210 0
-10 -1 1208 -1210 0
-1208 5 1209 1211 0
-1208 5 1209 -1211 0
-1209 -2 -6 1212 0
-1209 -2 -6 -1212 0
15 -6 1213 1215 0
15 -6 1213 -1215 0
-1213 -19 1214 1216 0
-1213 -19 1214 -1216 0
-1214 12 3 1217 0
-1214 12 3 -1217 0
-11 15 18 -13 0
23 24 -26 18 0
-20 -11 -16 -8 0
4 17 1218 1220 0
4 17 1218 -1220 0
-1218 -21 1219 1221 0
-1218 -21 1219 -1221 0
-1219 -1 -6 1222 0
-1219 -1 -6 -1222 0
6 -18 29 8 0
23 -4 -30 -8 0
-19 2 1223 1225 0
-19 2 1223 -1225 0
-1223 27 1224 1226 0
-1223 27 1224 -1226 0
-1224 -24 -26 1227 0
-1224 -24 -26 -1227 0
23 -7 1228 1230 0
23 -7 1228 -1230 0
-1228 9 1229 1231 0
-1228 9 1229 -1231 0
-1229 21 18 1232 0
-1229 21 18 -1232 0
-8 -9 1233 1235 0
-8 -9 1233 -1235 0
-1233 -29 1234 1236 0
-1233 -29 1234 -1236 0
-1234 -2 -6 1237 0
-1234 -2 -6 -1237 0
-25 13 1238 1240 0
-25 13 1238 -1240 0
-1238 -5 1239 1241 0
-1238 -5 1239 -1241 0
-1239 -6 12 1242 0
-1239 -6 12 -1242 0
17 15 -1 2 0
-20 26 1243 1245 0
-20 26 1243 -1245 0
-1243 23 1244 1246 0
-1243 23 1244 -1246 0
-1244 -6 -28 1247 0
-1244 -6 -28 -1247 0
-7 -27 1248 1250 0
-7 -27 1248 -1250 0
-1248 18 1249 1251 0
-1248 18 1249 -1251 0
-1249 -12 -3 1252 0
-1249 -12 -3 -1252 0
13 -5 1253 1255 0
13 -5 1253 -1255 0
-1253 30 1254 1256 0
-1253 30 1254 -1256 0
-1254 -18 16 1257 0
-1254 -18 16 -1257 0
-30 -2 -19 26 0
14 17 1258 1260 0
14 17 1258 -1260 0
-1258 -27 1259 1261 0
-1258 -27 1259 -1261 0
-1259 -20 1 1262 0
-1259 -20 1 -1262 0
11 2 1263 1265 0
11 2 1263 -1265 0
-1263 6 1264 1266 0
-1263 6 1264 -1266 0
-1264 28 -18 1267 0
-1264 28 -18 -1267 0
-27 29 1268 1270 0
-27 29 1268 -1270 0
-1268 -17 1269 1271 0
-1268 -17 1269 -1271 0
-1269 -7 23 1272 0
-1269 -7 23 -1272 0
-3 11 1273 1275 0
-3 11 1273 -1275 0
-1273 13 1274 1276 0
-1273 13 1274 -1276 0
-1274 -28 -21 1277 0
-1274 -28 -21 -1277 0
-27 23 -25 4 0
-20 -11 1278 1280 0
-20 -11 1278 -1280 0
-1278 3 1279 1281 0
-1278 3 1279 -1281 0
-1279 2 -6 1282 0
-1279 2 -6 -1282 0
15 13 1283 1285 0
15 13 1283 -1285 0
-1283 -8 1284 1286 0
-1283 -8 1284 -1286 0
-1284 -20 18 1287 0
-1284 -20 18 -1287 0
-19 -13 1288 1290 0
-19 -13 1288 -1290 0
-1288 20 1289 1291 0
-1288 20 1289 -1291 0
-1289 -12 -29 1292 0
-1289 -12 -29 -1292 0
20 -22 1293 1295 0
20 -22 1293 -1295 0
-1293 -4 1294 1296 0
-1293 -4 1294 -1296 0
-1294 -23 26 1297 0
-1294 -23 26 -1297 0
19 -23 -10 -3 0
18 -27 1298 1300 0
18 -27 1298 -1300 0
-1298 30 1299 1301 0
-1298 30 1299 -1301 0
-1299 10 -3 1302 0
-1299 10 -3 -1302 0
-15 16 24 -2 0
-6 5 1303 1305 0
-6 5 1303 -1305 0
-1303 -25 1304 1306 0
-1303 -25 1304 -1306 0
-1304 -30 18 1307 0
-1304 -30 18 -1307 0
22 -12 1308 1310 0
22 -12 1308 -1310 0
-1308 -17 1309 1311 0
-1308 -17 1309 -1311 0
-1309 6 14 1312 0
-1309 6 14 -1312 0
-11 -15 1313 1315 0
-11 -15 1313 -1315 0
-1313 -10 1314 1316 0
-1313 -10 1314 -1316 0
-1314 -9 -28 1317 0
-1314 -9 -28 -1317 0
29 4 1318 1320 0
29 4 1318 -1320 0
-1318 1 1319 1321 0
-1318 1 1319 -1321 0
-1319 24 -22 1322 0
-1319 24 -22 -1322 0
11 1 1323 1325 0
11 1 1323 -1325 0
-1323 25 1324 1326 0
-1323 25 1324 -1326 0
-1324 -9 -4 1327 0
-1324 -9 -4 -1327 0
-7 -22 1328 1330 0
-7 -22 1328 -1330 0
-1328 -2 1329 1331 0
-1328 -2 1329 -1331 0
-1329 -16 -27 1332 0
-1329 -16 -27 -1332 0
21 -3 1333 1335 0
21 -3 1333 -1335 0
-1333 -15 1334 1336 0
-1333 -15 1334 -1336 0
-1334 -4 -18 1337 0
-1334 -4 -18 -1337 0
-21 -22 23 7 0
23 -4 -8 2 0
27 30 1338 1340 0
27 30 1338 -1340 0
-1338 -7 1339 1341 0
-1338 -7 1339 -1341 0
-1339 12 -14 1342 0
-1339 12 -14 -1342 0
-2 -5 1343 1345 0
-2 -5 1343 -1345 0
-1343 -24 1344 1346 0
-1343 -24 1344 -1346 0
-1344 9 22 1347 0
-1344 9 22 -1347 0
5 15 2 4 0
19 -5 -1 -23 0
-5 19 10 1348 0
-5 19 10 -1348 0
-6 1 -19 4 0
6 18 1349 1351 0
6 18 1349 -1351 0
-1349 14 1350 1352 0
-1349 14 1350 -1352 0
-1350 -17 -13 1353 0
-1350 -17 -13 -1353 0
-4 13 1354 1356 0
-4 13 1354 -1356 0
-1354 8 1355 1357 0
-1354 8 1355 -1357 0
-1355 -28 20 1358 0
-1355 -28 20 -1358 0
-7 20 1359 1361 0
-7 20 1359 -1361 0
-1359 -10 1360 1362 0
-1359 -10 1360 -1362 0
-1360 -16 -1 1363 0
-1360 -16 -1 -1363 0
-11 8 -24 1 0
-14 19 1364 1366 0
-14 19 1364 -1366 0
-1364 -4 1365 1367 0
-1364 -4 1365 -1367 0
-1365 25 27 1368 0
-1365 25 27 -1368 0
-22 23 1369 1371 0
-22 23 1369 -1371 0
-1369 20 1370 1372 0
-1369 20 1370 -1372 0
-1370 16 19 1373 0
-1370 16 19 -1373 0
9 -29 1374 1376 0
9 -29 1374 -1376 0
-1374 -30 1375 1377 0
-1374 -30 1375 -1377 0
-1375 -3 8 1378 0
-1375 -3 8 -1378 0
-21 -14 8 18 0
17 -6 1379 1381 0
17 -6 1379 -1381 0
-1379 -29 1380 1382 0
-1379 -29 1380 -1382 0
-1380 -3 23 1383 0
-1380 -3 23 -1383 0
-29 -21 1384 1386 0
-29 -21 1384 -1386 0
-1384 16 1385 1387 0
-1384 16 1385 -1387 0
-1385 9 -11 1388 0
-1385 9 -11 -1388 0
9 4 1389 1391 0
9 4 1389 -1391 0
-1389 12 1390 1392 0
-1389 12 1390 -1392 0
-1390 -3 -16 1393 0
-1390 -3 -16 -1393 0
-13 -19 -11 3 0
30 -26 1394 1396 0
30 -26 1394 -1396 0
-1394 4 1395 1397 0
-1394 4 1395 -1397 0
-1395 -20 23 1398 0
-1395 -20 23 -1398 0
-25 -29 1399 1401 0
-25 -29 1399 -1401 0
-1399 -4 1400 1402 0
-1399 -4 1400 -1402 0
-1400 30 -7 1403 0
-1400 30 -7 -1403 0
-3 -5 1404 1406 0
-3 -5 1404 -1406 0
-1404 4 1405 1407 0
-1404 4 1405 -1407 0
-1405 12 28 1408 0
-1405 12 28 -1408 0
5 22 1409 1411 0
5 22 1409 -1411 0
-1409 -21 1410 1412 0
-1409 -21 1410 -1412 0
-1410 -29 -11 1413 0
-1410 -29 -11 -1413 0
3 12 1414 1416 0
3 12 1414 -1416 0
-1414 -16 1415 1417 0
-1414 -16 1415 -1417 0
-1415 -20 28 1418 0
-1415 -20 28 -1418 0
25 23 1419 1421 0
25 23 1419 -1421 0
-1419 -8 1420 1422 0
-1419 -8 1420 -1422 0
-1420 -10 -17 1423 0
-1420 -10 -17 -1423 0
10 21 1424 1426 0
10 21 1424 -1426 0
-1424 27 1425 1427 0
-1424 27 1425 -1427 0
-1425 8 30 1428 0
-1425 8 30 -1428 0
-30 15 1429 1431 0
-30 15 1429 -1431 0
-1429 -29 1430 1432 0
-1429 -29 1430 -1432 0
-1430 26 20 1433 0
-1430 26 20 -1433 0
27 19 18 9 0
-25 -4 18 24 0
4 -7 1434 1436 0
4 -7 1434 -1436 0
-1434 -26 1435 1437 0
-1434 -26 1435 -1437 0
-1435 28 21 1438 0
-1435 28 21 -1438 0
15 -30 1439 1441 0
15 -30 1439 -1441 0
-1439 -11 1440 1442 0
-1439 -11 1440 -1442 0
-1440 -7 -3 1443 0
-1440 -7 -3 -1443 0
-4 -13 1444 1446 0
-4 -13 1444 -1446 0
-1444 6 1445 1447 0
-1444 6 1445 -1447 0
-1445 30 19 1448 0
-1445 30 19 -1448 0
-27 24 1449 1451 0
-27 24 1449 -1451 0
-1449 5 1450 1452 0
-1449 5 1450 -1452 0
-1450 9 3 1453 0
-1450 9 3 -1453 0
3 -17 1454 1456 0
3 -17 1454 -1456 0
-1454 -24 1455 1457 0
-1454 -24 1455 -1457 0
-1455 30 6 1458 0
-1455 30 6 -1458 0
-12 -21 1459 1461 0
-12 -21 1459 -1461 0
-1459 -24 1460 1462 0
-1459 -24 1460 -1462 0
-1460 -13 -27 1463 0
-1460 -13 -27 -1463 0
-22 -25 1464 1466 0
-22 -25 1464 -1466 0
-1464 -30 1465 1467 0
-1464 -30 1465 -1467 0
-1465 1 -18 1468 0
-1465 1 -18 -1468 0
-26 30 1469 1471 0
-26 30 1469 -1471 0
-1469 -25 1470 1472 0
-1469 -25 1470 -1472 0
-1470 -6 4 1473 0
-1470 -6 4 -1473 0
-30 -18 1474 1476 0
-30 -18 1474 -1476 0
-1474 -9 1475 1477 0
-1474 -9 1475 -1477 0
-1475 2 -1 1478 0
-1475 2 -1 -1478 0
29 -17 -18 6 0
28 9 -23 13 0
-30 -20 1479 1481 0
-30 -20 1479 -1481 0
-1479 18 1480 1482 0
-1479 18 1480 -1482 0
-1480 -11 22 1483 0
-1480 -11 22 -1483 0
-11 12 1484 1486 0
-11 12 1484 -1486 0
-1484 -5 1485 1487 0
-1484 -5 1485 -1487 0
-1485 29 14 1488 0
-1485 29 14 -1488 0
-30 7 1489 1491 0
-30 7 1489 -1491 0
-1489 25 1490 1492 0
-1489 25 1490 -1492 0
-1490 -23 -2 1493 0
-1490 -23 -2 -1493 0
23 20 1494 1496 0
23 20 1494 -1496 0
-1494 18 1495 1497 0
-1494 18 1495 -1497 0
-1495 -16 -19 1498 0
-1495 -16 -19 -1498 0
-17 13 1499 1501 0
-17 13 1499 -1501 0
-1499 24 1500 1502 0
-1499 24 1500 -1502 0
-1500 29 8 1503 0
-1500 29 8 -1503 0
-15 -3 1504 1506 0
-15 -3 1504 -1506 0
-1504 9 1505 1507 0
-1504 9 1505 -1507 0
-1505 20 23 1508 0
-1505 20 23 -1508 0
6 13 1509 1511 0
6 13 1509 -1511 0
-1509 -4 1510 1512 0
-1509 -4 1510 -1512 0
-1510 -10 -19 1513 0
-1510 -10 -19 -1513 0
29 11 1514 1516 0
29 11 1514 -1516 0
-1514 2 1515 1517 0
-1514 2 1515 -1517 0
-1515 21 20 1518 0
-1515 21 20 -1518 0
-2 -13 1519 1521 0
-2 -13 1519 -1521 0
-1519 6 1520 1522 0
-1519 6 1520 -1522 0
-1520 24 -10 1523 0
-1520 24 -10 -1523 0
15 -17 -14 18 0
-29 -16 -19 1524 0
-29 -16 -19 -1524 0
5 20 1525 1527 0
5 20 1525 -1527 0
-1525 -1 1526 1528 0
-1525 -1 1526 -1528 0
-1526 -11 13 1529 0
-1526 -11 13 -1529 0
-25 -14 1530 1532 0
-25 -14 1530 -1532 0
-1530 1 1531 1533 0
-1530 1 1531 -1533 0
-1531 26 -27 1534 0
-1531 26 -27 -1534 0
-2 -28 15 -22 0
4 -10 -24 -15 0
-3 -21 1535 1537 0
-3 -21 1535 -1537 0
-1535 -1 1536 1538 0
-1535 -1 1536 -1538 0
-1536 -16 13 1539 0
-1536 -16 13 -1539 0
-23 -25 -22 28 0
-16 -22 1540 1542 0
-16 -22 1540 -1542 0
-1540 25 1541 1543 0
-1540 25 1541 -1543 0
-1541 -19 7 1544 0
-1541 -19 7 -1544 0
4 -15 1545 1547 0
4 -15 1545 -1547 0
-1545 21 1546 1548 0
-1545 21 1546 -1548 0
-1546 -14 30 1549 0
-1546 -14 30 -1549 0
10 -13 20 -5 0
-18 -19 13 -12 0
-16 -28 12 1550 0
-16 -28 12 -1550 0
-24 7 1551 1553 0
-24 7 1551 -1553 0
-1551 -1 1552 1554 0
-1551 -1 1552 -1554 0
-1552 -9 30 1555 0
-1552 -9 30 -1555 0
-22 -13 1556 1558 0
-22 -13 1556 -1558 0
-1556 14 1557 1559 0
-1556 14 1557 -1559 0
-1557 -3 6 1560 0
-1557 -3 6 -1560 0
-24 -30 1561 1563 0
-24 -30 1561 -1563 0
-1561 25 1562 1564 0
-1561 25 1562 -1564 0
-1562 6 -10 1565 0
-1562 6 -10 -1565 0
-20 9 1566 1568 0
-20 9 1566 -1568 0
-1566 -16 1567 1569 0
-1566 -16 1567 -1569 0
-1567 -22 25 1570 0
-1567 -22 25 -1570 0
-5 22 -14 8 0

